65
1 0 31
2 0 49
2 1 49
3 0 47
3 1 15
3 2 44
4 0 9
4 1 22
4 2 19
4 3 36
5 0 5
5 1 11
5 2 46
5 3 8
5 4 6
6 0 31
6 1 6
6 2 39
6 3 16
6 4 18
6 5 27
7 0 1
7 1 22
7 2 48
7 3 30
7 4 42
7 5 13
7 6 3
8 0 12
8 1 2
8 2 38
8 3 24
8 4 38
8 5 20
8 6 31
8 7 46
9 0 15
9 1 39
9 2 9
9 3 28
9 4 5
9 5 26
9 6 47
9 7 9
9 8 45
10 0 22
10 1 48
10 2 13
10 3 48
10 4 49
10 5 47
10 6 20
10 7 32
10 8 40
10 9 47
11 0 45
11 1 12
11 2 48
11 3 37
11 4 20
11 5 49
11 6 24
11 7 21
11 8 50
11 9 49
11 10 4
12 0 39
12 1 1
12 2 33
12 3 14
12 4 29
12 5 26
12 6 14
12 7 1
12 8 29
12 9 11
12 10 42
12 11 36
13 0 13
13 1 22
13 2 14
13 3 19
13 4 9
13 5 4
13 6 16
13 7 48
13 8 33
13 9 39
13 10 17
13 11 18
13 12 21
14 0 2
14 1 22
14 2 33
14 3 48
14 4 37
14 5 13
14 6 22
14 7 48
14 8 2
14 9 12
14 10 16
14 11 6
14 12 16
14 13 38
15 0 49
15 1 6
15 2 48
15 3 48
15 4 28
15 5 30
15 6 18
15 7 4
15 8 42
15 9 17
15 10 41
15 11 4
15 12 45
15 13 4
15 14 29
16 0 32
16 1 46
16 2 34
16 3 26
16 4 31
16 5 24
16 6 19
16 7 18
16 8 45
16 9 31
16 10 36
16 11 9
16 12 45
16 13 7
16 14 1
16 15 29
17 0 24
17 1 14
17 2 32
17 3 48
17 4 38
17 5 31
17 6 18
17 7 42
17 8 9
17 9 36
17 10 35
17 11 32
17 12 48
17 13 5
17 14 5
17 15 3
17 16 20
18 0 20
18 1 41
18 2 28
18 3 12
18 4 38
18 5 23
18 6 25
18 7 22
18 8 48
18 9 26
18 10 20
18 11 28
18 12 38
18 13 41
18 14 41
18 15 14
18 16 18
18 17 8
19 0 13
19 1 46
19 2 9
19 3 37
19 4 40
19 5 5
19 6 9
19 7 23
19 8 30
19 9 19
19 10 21
19 11 42
19 12 10
19 13 17
19 14 37
19 15 2
19 16 27
19 17 33
19 18 29
20 0 40
20 1 50
20 2 30
20 3 21
20 4 37
20 5 44
20 6 46
20 7 16
20 8 10
20 9 50
20 10 45
20 11 29
20 12 29
20 13 30
20 14 13
20 15 25
20 16 32
20 17 34
20 18 45
20 19 37
21 0 29
21 1 5
21 2 8
21 3 30
21 4 30
21 5 25
21 6 23
21 7 28
21 8 19
21 9 38
21 10 43
21 11 37
21 12 30
21 13 21
21 14 4
21 15 45
21 16 23
21 17 19
21 18 28
21 19 24
21 20 3
22 0 41
22 1 43
22 2 31
22 3 23
22 4 50
22 5 28
22 6 13
22 7 29
22 8 38
22 9 11
22 10 30
22 11 39
22 12 19
22 13 15
22 14 31
22 15 39
22 16 24
22 17 49
22 18 25
22 19 23
22 20 50
22 21 11
23 0 6
23 1 30
23 2 20
23 3 29
23 4 36
23 5 25
23 6 38
23 7 35
23 8 42
23 9 13
23 10 10
23 11 18
23 12 46
23 13 3
23 14 5
23 15 29
23 16 43
23 17 26
23 18 31
23 19 2
23 20 2
23 21 19
23 22 47
24 0 48
24 1 4
24 2 35
24 3 3
24 4 16
24 5 33
24 6 30
24 7 42
24 8 28
24 9 3
24 10 1
24 11 2
24 12 33
24 13 49
24 14 8
24 15 9
24 16 8
24 17 21
24 18 31
24 19 34
24 20 9
24 21 6
24 22 8
24 23 26
25 0 44
25 1 1
25 2 45
25 3 27
25 4 34
25 5 43
25 6 12
25 7 41
25 8 19
25 9 34
25 10 33
25 11 46
25 12 43
25 13 50
25 14 29
25 15 5
25 16 45
25 17 44
25 18 24
25 19 21
25 20 31
25 21 2
25 22 16
25 23 38
25 24 14
26 0 46
26 1 41
26 2 36
26 3 30
26 4 18
26 5 50
26 6 17
26 7 37
26 8 48
26 9 23
26 10 46
26 11 34
26 12 38
26 13 31
26 14 10
26 15 36
26 16 27
26 17 35
26 18 2
26 19 49
26 20 37
26 21 28
26 22 11
26 23 26
26 24 9
26 25 41
27 0 44
27 1 23
27 2 42
27 3 7
27 4 37
27 5 40
27 6 13
27 7 13
27 8 14
27 9 13
27 10 38
27 11 11
27 12 24
27 13 4
27 14 49
27 15 7
27 16 34
27 17 37
27 18 40
27 19 9
27 20 29
27 21 2
27 22 35
27 23 28
27 24 44
27 25 44
27 26 38
28 0 4
28 1 33
28 2 37
28 3 14
28 4 4
28 5 23
28 6 37
28 7 16
28 8 9
28 9 3
28 10 41
28 11 46
28 12 50
28 13 5
28 14 9
28 15 42
28 16 34
28 17 5
28 18 20
28 19 40
28 20 3
28 21 30
28 22 25
28 23 35
28 24 39
28 25 20
28 26 7
28 27 21
29 0 31
29 1 2
29 2 26
29 3 2
29 4 42
29 5 19
29 6 45
29 7 32
29 8 19
29 9 18
29 10 26
29 11 44
29 12 6
29 13 35
29 14 29
29 15 16
29 16 35
29 17 6
29 18 26
29 19 44
29 20 22
29 21 49
29 22 30
29 23 49
29 24 17
29 25 43
29 26 32
29 27 19
29 28 21
30 0 14
30 1 25
30 2 35
30 3 37
30 4 25
30 5 29
30 6 2
30 7 36
30 8 7
30 9 11
30 10 11
30 11 42
30 12 15
30 13 12
30 14 38
30 15 39
30 16 5
30 17 26
30 18 16
30 19 22
30 20 49
30 21 32
30 22 17
30 23 31
30 24 49
30 25 48
30 26 12
30 27 2
30 28 17
30 29 31
31 0 12
31 1 10
31 2 29
31 3 10
31 4 28
31 5 11
31 6 2
31 7 12
31 8 3
31 9 29
31 10 48
31 11 39
31 12 48
31 13 23
31 14 45
31 15 33
31 16 22
31 17 48
31 18 28
31 19 5
31 20 27
31 21 35
31 22 13
31 23 41
31 24 15
31 25 19
31 26 22
31 27 2
31 28 3
31 29 6
31 30 1
32 0 35
32 1 32
32 2 7
32 3 31
32 4 42
32 5 29
32 6 35
32 7 37
32 8 10
32 9 39
32 10 15
32 11 29
32 12 17
32 13 7
32 14 5
32 15 8
32 16 36
32 17 50
32 18 22
32 19 30
32 20 35
32 21 41
32 22 12
32 23 3
32 24 18
32 25 40
32 26 34
32 27 26
32 28 28
32 29 44
32 30 12
32 31 25
33 0 37
33 1 15
33 2 9
33 3 14
33 4 16
33 5 10
33 6 1
33 7 13
33 8 26
33 9 25
33 10 26
33 11 37
33 12 13
33 13 38
33 14 12
33 15 40
33 16 24
33 17 32
33 18 38
33 19 24
33 20 30
33 21 29
33 22 50
33 23 14
33 24 17
33 25 16
33 26 20
33 27 35
33 28 14
33 29 32
33 30 38
33 31 13
33 32 11
34 0 35
34 1 50
34 2 13
34 3 47
34 4 9
34 5 10
34 6 19
34 7 28
34 8 34
34 9 35
34 10 36
34 11 24
34 12 1
34 13 3
34 14 36
34 15 1
34 16 49
34 17 10
34 18 24
34 19 38
34 20 13
34 21 49
34 22 6
34 23 32
34 24 5
34 25 1
34 26 5
34 27 49
34 28 6
34 29 30
34 30 8
34 31 3
34 32 24
34 33 49
35 0 27
35 1 8
35 2 50
35 3 14
35 4 14
35 5 45
35 6 14
35 7 45
35 8 31
35 9 17
35 10 32
35 11 10
35 12 18
35 13 16
35 14 25
35 15 36
35 16 20
35 17 44
35 18 36
35 19 13
35 20 19
35 21 37
35 22 34
35 23 35
35 24 49
35 25 16
35 26 19
35 27 8
35 28 42
35 29 27
35 30 41
35 31 3
35 32 42
35 33 28
35 34 13
36 0 12
36 1 2
36 2 9
36 3 9
36 4 40
36 5 43
36 6 27
36 7 19
36 8 39
36 9 6
36 10 12
36 11 49
36 12 39
36 13 47
36 14 8
36 15 32
36 16 38
36 17 49
36 18 34
36 19 7
36 20 3
36 21 1
36 22 37
36 23 7
36 24 9
36 25 4
36 26 13
36 27 47
36 28 36
36 29 46
36 30 37
36 31 2
36 32 48
36 33 50
36 34 5
36 35 29
37 0 26
37 1 30
37 2 1
37 3 14
37 4 11
37 5 39
37 6 16
37 7 43
37 8 14
37 9 4
37 10 17
37 11 46
37 12 12
37 13 15
37 14 50
37 15 32
37 16 12
37 17 42
37 18 21
37 19 11
37 20 38
37 21 13
37 22 50
37 23 17
37 24 41
37 25 3
37 26 12
37 27 21
37 28 3
37 29 7
37 30 11
37 31 20
37 32 29
37 33 50
37 34 43
37 35 13
37 36 10
38 0 44
38 1 39
38 2 33
38 3 26
38 4 23
38 5 23
38 6 5
38 7 7
38 8 29
38 9 29
38 10 38
38 11 30
38 12 20
38 13 5
38 14 46
38 15 7
38 16 36
38 17 31
38 18 21
38 19 25
38 20 23
38 21 21
38 22 40
38 23 41
38 24 29
38 25 48
38 26 37
38 27 37
38 28 42
38 29 11
38 30 19
38 31 26
38 32 10
38 33 19
38 34 21
38 35 2
38 36 46
38 37 47
39 0 39
39 1 30
39 2 18
39 3 28
39 4 46
39 5 40
39 6 15
39 7 3
39 8 20
39 9 35
39 10 10
39 11 49
39 12 35
39 13 9
39 14 31
39 15 20
39 16 14
39 17 5
39 18 46
39 19 22
39 20 10
39 21 1
39 22 37
39 23 10
39 24 15
39 25 4
39 26 3
39 27 16
39 28 1
39 29 26
39 30 37
39 31 16
39 32 49
39 33 10
39 34 44
39 35 14
39 36 39
39 37 32
39 38 15
40 0 49
40 1 10
40 2 40
40 3 11
40 4 43
40 5 16
40 6 16
40 7 37
40 8 46
40 9 7
40 10 14
40 11 30
40 12 22
40 13 19
40 14 25
40 15 32
40 16 42
40 17 33
40 18 35
40 19 38
40 20 8
40 21 35
40 22 38
40 23 9
40 24 12
40 25 30
40 26 1
40 27 22
40 28 10
40 29 35
40 30 49
40 31 33
40 32 45
40 33 23
40 34 35
40 35 25
40 36 43
40 37 21
40 38 24
40 39 8
41 0 14
41 1 13
41 2 5
41 3 20
41 4 14
41 5 9
41 6 12
41 7 13
41 8 43
41 9 28
41 10 5
41 11 3
41 12 38
41 13 19
41 14 25
41 15 38
41 16 21
41 17 39
41 18 23
41 19 45
41 20 35
41 21 1
41 22 29
41 23 31
41 24 2
41 25 26
41 26 26
41 27 20
41 28 14
41 29 29
41 30 6
41 31 39
41 32 12
41 33 21
41 34 30
41 35 42
41 36 35
41 37 16
41 38 11
41 39 21
41 40 37
42 0 45
42 1 37
42 2 25
42 3 6
42 4 5
42 5 19
42 6 40
42 7 20
42 8 16
42 9 9
42 10 50
42 11 6
42 12 31
42 13 7
42 14 34
42 15 40
42 16 9
42 17 4
42 18 13
42 19 4
42 20 7
42 21 26
42 22 21
42 23 46
42 24 40
42 25 50
42 26 25
42 27 41
42 28 32
42 29 15
42 30 23
42 31 25
42 32 38
42 33 39
42 34 40
42 35 16
42 36 21
42 37 42
42 38 37
42 39 29
42 40 5
42 41 49
43 0 39
43 1 29
43 2 12
43 3 4
43 4 7
43 5 31
43 6 11
43 7 42
43 8 42
43 9 35
43 10 37
43 11 37
43 12 10
43 13 36
43 14 16
43 15 34
43 16 25
43 17 1
43 18 31
43 19 48
43 20 36
43 21 36
43 22 45
43 23 47
43 24 18
43 25 22
43 26 43
43 27 2
43 28 27
43 29 5
43 30 25
43 31 38
43 32 2
43 33 47
43 34 43
43 35 24
43 36 23
43 37 43
43 38 34
43 39 39
43 40 35
43 41 3
43 42 30
44 0 24
44 1 3
44 2 11
44 3 7
44 4 49
44 5 45
44 6 41
44 7 32
44 8 19
44 9 41
44 10 16
44 11 3
44 12 24
44 13 30
44 14 23
44 15 11
44 16 34
44 17 7
44 18 36
44 19 39
44 20 15
44 21 33
44 22 31
44 23 9
44 24 3
44 25 29
44 26 39
44 27 20
44 28 19
44 29 35
44 30 20
44 31 50
44 32 50
44 33 2
44 34 4
44 35 49
44 36 11
44 37 2
44 38 40
44 39 27
44 40 13
44 41 10
44 42 28
44 43 25
45 0 50
45 1 16
45 2 6
45 3 4
45 4 1
45 5 42
45 6 35
45 7 23
45 8 18
45 9 7
45 10 31
45 11 50
45 12 49
45 13 24
45 14 18
45 15 17
45 16 19
45 17 15
45 18 12
45 19 31
45 20 50
45 21 39
45 22 47
45 23 26
45 24 24
45 25 4
45 26 30
45 27 45
45 28 36
45 29 22
45 30 47
45 31 11
45 32 23
45 33 11
45 34 46
45 35 7
45 36 37
45 37 36
45 38 38
45 39 39
45 40 21
45 41 41
45 42 18
45 43 29
45 44 41
46 0 23
46 1 14
46 2 49
46 3 44
46 4 48
46 5 12
46 6 4
46 7 29
46 8 44
46 9 17
46 10 46
46 11 32
46 12 13
46 13 32
46 14 28
46 15 12
46 16 34
46 17 50
46 18 29
46 19 49
46 20 11
46 21 46
46 22 34
46 23 41
46 24 49
46 25 1
46 26 3
46 27 34
46 28 24
46 29 29
46 30 6
46 31 22
46 32 31
46 33 40
46 34 41
46 35 3
46 36 32
46 37 6
46 38 7
46 39 6
46 40 16
46 41 31
46 42 3
46 43 8
46 44 20
46 45 10
47 0 46
47 1 28
47 2 3
47 3 21
47 4 25
47 5 42
47 6 45
47 7 36
47 8 46
47 9 24
47 10 22
47 11 40
47 12 10
47 13 44
47 14 28
47 15 13
47 16 6
47 17 46
47 18 11
47 19 32
47 20 32
47 21 11
47 22 9
47 23 29
47 24 17
47 25 8
47 26 41
47 27 42
47 28 5
47 29 5
47 30 12
47 31 12
47 32 22
47 33 29
47 34 5
47 35 36
47 36 2
47 37 15
47 38 44
47 39 17
47 40 23
47 41 4
47 42 45
47 43 29
47 44 47
47 45 15
47 46 37
48 0 29
48 1 39
48 2 22
48 3 6
48 4 45
48 5 4
48 6 30
48 7 30
48 8 9
48 9 10
48 10 16
48 11 18
48 12 33
48 13 40
48 14 47
48 15 48
48 16 15
48 17 46
48 18 13
48 19 4
48 20 16
48 21 35
48 22 29
48 23 14
48 24 6
48 25 33
48 26 1
48 27 28
48 28 48
48 29 18
48 30 31
48 31 12
48 32 35
48 33 23
48 34 10
48 35 9
48 36 1
48 37 43
48 38 18
48 39 34
48 40 15
48 41 38
48 42 14
48 43 22
48 44 14
48 45 45
48 46 25
48 47 22
49 0 22
49 1 4
49 2 25
49 3 25
49 4 18
49 5 43
49 6 36
49 7 3
49 8 34
49 9 3
49 10 31
49 11 20
49 12 21
49 13 15
49 14 43
49 15 13
49 16 40
49 17 1
49 18 18
49 19 31
49 20 29
49 21 17
49 22 20
49 23 9
49 24 48
49 25 45
49 26 26
49 27 31
49 28 15
49 29 32
49 30 47
49 31 38
49 32 8
49 33 40
49 34 8
49 35 24
49 36 32
49 37 9
49 38 27
49 39 24
49 40 36
49 41 39
49 42 7
49 43 29
49 44 22
49 45 36
49 46 9
49 47 17
49 48 45
50 0 13
50 1 43
50 2 26
50 3 15
50 4 44
50 5 19
50 6 22
50 7 40
50 8 43
50 9 21
50 10 41
50 11 34
50 12 3
50 13 25
50 14 30
50 15 14
50 16 33
50 17 39
50 18 5
50 19 26
50 20 1
50 21 21
50 22 22
50 23 50
50 24 47
50 25 24
50 26 47
50 27 9
50 28 4
50 29 47
50 30 42
50 31 41
50 32 16
50 33 21
50 34 6
50 35 47
50 36 8
50 37 25
50 38 31
50 39 48
50 40 24
50 41 2
50 42 41
50 43 30
50 44 23
50 45 28
50 46 29
50 47 40
50 48 12
50 49 34
51 0 45
51 1 41
51 2 41
51 3 19
51 4 1
51 5 15
51 6 2
51 7 16
51 8 12
51 9 28
51 10 42
51 11 26
51 12 16
51 13 1
51 14 6
51 15 18
51 16 16
51 17 6
51 18 37
51 19 25
51 20 8
51 21 50
51 22 40
51 23 2
51 24 29
51 25 20
51 26 39
51 27 23
51 28 37
51 29 44
51 30 29
51 31 37
51 32 11
51 33 38
51 34 27
51 35 44
51 36 34
51 37 8
51 38 22
51 39 41
51 40 39
51 41 4
51 42 41
51 43 9
51 44 47
51 45 30
51 46 34
51 47 30
51 48 1
51 49 16
51 50 17
52 0 26
52 1 14
52 2 38
52 3 14
52 4 32
52 5 35
52 6 23
52 7 1
52 8 22
52 9 49
52 10 38
52 11 30
52 12 17
52 13 31
52 14 40
52 15 1
52 16 36
52 17 45
52 18 48
52 19 31
52 20 35
52 21 29
52 22 36
52 23 27
52 24 4
52 25 40
52 26 6
52 27 32
52 28 23
52 29 27
52 30 38
52 31 15
52 32 1
52 33 11
52 34 17
52 35 17
52 36 24
52 37 40
52 38 6
52 39 32
52 40 25
52 41 15
52 42 28
52 43 23
52 44 13
52 45 15
52 46 31
52 47 23
52 48 50
52 49 18
52 50 36
52 51 37
53 0 1
53 1 47
53 2 45
53 3 37
53 4 7
53 5 26
53 6 26
53 7 28
53 8 34
53 9 4
53 10 14
53 11 49
53 12 35
53 13 39
53 14 47
53 15 35
53 16 26
53 17 48
53 18 30
53 19 49
53 20 20
53 21 19
53 22 16
53 23 49
53 24 31
53 25 26
53 26 47
53 27 37
53 28 49
53 29 27
53 30 4
53 31 48
53 32 6
53 33 41
53 34 19
53 35 37
53 36 43
53 37 22
53 38 5
53 39 19
53 40 12
53 41 1
53 42 13
53 43 8
53 44 18
53 45 34
53 46 40
53 47 41
53 48 49
53 49 5
53 50 43
53 51 32
53 52 24
54 0 46
54 1 38
54 2 6
54 3 38
54 4 48
54 5 27
54 6 44
54 7 50
54 8 50
54 9 5
54 10 44
54 11 29
54 12 9
54 13 3
54 14 38
54 15 19
54 16 8
54 17 16
54 18 42
54 19 15
54 20 22
54 21 27
54 22 23
54 23 45
54 24 47
54 25 5
54 26 14
54 27 14
54 28 19
54 29 29
54 30 47
54 31 30
54 32 2
54 33 18
54 34 11
54 35 7
54 36 7
54 37 4
54 38 23
54 39 22
54 40 41
54 41 14
54 42 46
54 43 4
54 44 25
54 45 3
54 46 26
54 47 14
54 48 45
54 49 41
54 50 43
54 51 4
54 52 22
54 53 16
55 0 36
55 1 5
55 2 15
55 3 43
55 4 9
55 5 40
55 6 30
55 7 49
55 8 12
55 9 1
55 10 32
55 11 3
55 12 30
55 13 12
55 14 43
55 15 50
55 16 48
55 17 25
55 18 2
55 19 21
55 20 37
55 21 13
55 22 2
55 23 25
55 24 21
55 25 25
55 26 48
55 27 9
55 28 48
55 29 42
55 30 32
55 31 3
55 32 23
55 33 31
55 34 35
55 35 42
55 36 31
55 37 47
55 38 33
55 39 40
55 40 20
55 41 17
55 42 48
55 43 20
55 44 42
55 45 25
55 46 30
55 47 24
55 48 11
55 49 13
55 50 2
55 51 24
55 52 32
55 53 37
55 54 19
56 0 22
56 1 7
56 2 13
56 3 1
56 4 49
56 5 31
56 6 33
56 7 22
56 8 19
56 9 9
56 10 43
56 11 27
56 12 25
56 13 49
56 14 50
56 15 45
56 16 8
56 17 10
56 18 21
56 19 40
56 20 10
56 21 12
56 22 11
56 23 45
56 24 17
56 25 42
56 26 23
56 27 47
56 28 29
56 29 1
56 30 46
56 31 38
56 32 40
56 33 46
56 34 50
56 35 32
56 36 31
56 37 38
56 38 24
56 39 29
56 40 1
56 41 46
56 42 46
56 43 12
56 44 41
56 45 23
56 46 1
56 47 28
56 48 25
56 49 38
56 50 11
56 51 2
56 52 32
56 53 7
56 54 21
56 55 37
57 0 46
57 1 28
57 2 24
57 3 49
57 4 43
57 5 34
57 6 48
57 7 25
57 8 12
57 9 1
57 10 12
57 11 31
57 12 12
57 13 6
57 14 47
57 15 22
57 16 31
57 17 26
57 18 22
57 19 28
57 20 14
57 21 18
57 22 35
57 23 6
57 24 22
57 25 41
57 26 38
57 27 1
57 28 3
57 29 24
57 30 39
57 31 1
57 32 48
57 33 36
57 34 11
57 35 1
57 36 15
57 37 16
57 38 32
57 39 19
57 40 3
57 41 7
57 42 24
57 43 21
57 44 31
57 45 31
57 46 13
57 47 27
57 48 38
57 49 5
57 50 27
57 51 48
57 52 35
57 53 30
57 54 18
57 55 41
57 56 37
58 0 16
58 1 2
58 2 48
58 3 45
58 4 5
58 5 30
58 6 46
58 7 29
58 8 30
58 9 49
58 10 41
58 11 42
58 12 44
58 13 15
58 14 6
58 15 11
58 16 37
58 17 7
58 18 31
58 19 5
58 20 41
58 21 11
58 22 42
58 23 42
58 24 24
58 25 36
58 26 8
58 27 10
58 28 3
58 29 42
58 30 46
58 31 8
58 32 35
58 33 44
58 34 15
58 35 33
58 36 6
58 37 29
58 38 16
58 39 7
58 40 43
58 41 23
58 42 28
58 43 2
58 44 2
58 45 34
58 46 35
58 47 2
58 48 30
58 49 22
58 50 8
58 51 25
58 52 16
58 53 49
58 54 11
58 55 45
58 56 26
58 57 39
59 0 20
59 1 7
59 2 49
59 3 16
59 4 10
59 5 20
59 6 17
59 7 44
59 8 10
59 9 33
59 10 21
59 11 42
59 12 10
59 13 7
59 14 48
59 15 27
59 16 10
59 17 7
59 18 25
59 19 46
59 20 41
59 21 14
59 22 3
59 23 17
59 24 50
59 25 49
59 26 7
59 27 3
59 28 43
59 29 31
59 30 31
59 31 34
59 32 46
59 33 44
59 34 20
59 35 17
59 36 20
59 37 50
59 38 47
59 39 16
59 40 44
59 41 8
59 42 3
59 43 39
59 44 3
59 45 8
59 46 26
59 47 13
59 48 42
59 49 49
59 50 24
59 51 21
59 52 13
59 53 50
59 54 26
59 55 20
59 56 13
59 57 50
59 58 9
60 0 12
60 1 32
60 2 10
60 3 1
60 4 28
60 5 16
60 6 42
60 7 30
60 8 31
60 9 24
60 10 11
60 11 48
60 12 2
60 13 4
60 14 2
60 15 29
60 16 49
60 17 14
60 18 36
60 19 40
60 20 37
60 21 10
60 22 39
60 23 4
60 24 37
60 25 17
60 26 20
60 27 42
60 28 37
60 29 41
60 30 10
60 31 26
60 32 19
60 33 30
60 34 12
60 35 14
60 36 24
60 37 2
60 38 18
60 39 18
60 40 2
60 41 10
60 42 49
60 43 49
60 44 19
60 45 20
60 46 44
60 47 26
60 48 7
60 49 29
60 50 12
60 51 1
60 52 1
60 53 50
60 54 8
60 55 37
60 56 25
60 57 17
60 58 42
60 59 36
61 0 44
61 1 32
61 2 13
61 3 47
61 4 22
61 5 12
61 6 34
61 7 33
61 8 22
61 9 33
61 10 28
61 11 28
61 12 23
61 13 19
61 14 37
61 15 10
61 16 3
61 17 37
61 18 39
61 19 36
61 20 47
61 21 22
61 22 45
61 23 42
61 24 3
61 25 17
61 26 49
61 27 28
61 28 16
61 29 39
61 30 32
61 31 7
61 32 36
61 33 10
61 34 47
61 35 15
61 36 16
61 37 3
61 38 33
61 39 28
61 40 15
61 41 22
61 42 14
61 43 23
61 44 35
61 45 23
61 46 23
61 47 36
61 48 4
61 49 38
61 50 15
61 51 43
61 52 48
61 53 20
61 54 28
61 55 36
61 56 28
61 57 8
61 58 16
61 59 40
61 60 34
62 0 49
62 1 2
62 2 37
62 3 19
62 4 43
62 5 40
62 6 43
62 7 40
62 8 41
62 9 26
62 10 43
62 11 30
62 12 28
62 13 50
62 14 5
62 15 20
62 16 36
62 17 19
62 18 3
62 19 35
62 20 7
62 21 15
62 22 37
62 23 31
62 24 30
62 25 35
62 26 16
62 27 45
62 28 30
62 29 15
62 30 10
62 31 44
62 32 20
62 33 5
62 34 11
62 35 7
62 36 16
62 37 15
62 38 42
62 39 20
62 40 5
62 41 28
62 42 20
62 43 25
62 44 36
62 45 37
62 46 41
62 47 50
62 48 42
62 49 5
62 50 23
62 51 11
62 52 9
62 53 50
62 54 37
62 55 2
62 56 6
62 57 13
62 58 48
62 59 1
62 60 21
62 61 2
63 0 23
63 1 45
63 2 50
63 3 31
63 4 38
63 5 19
63 6 50
63 7 28
63 8 33
63 9 16
63 10 29
63 11 6
63 12 15
63 13 39
63 14 17
63 15 48
63 16 26
63 17 26
63 18 12
63 19 18
63 20 19
63 21 49
63 22 2
63 23 34
63 24 12
63 25 1
63 26 18
63 27 31
63 28 50
63 29 20
63 30 20
63 31 26
63 32 31
63 33 17
63 34 38
63 35 1
63 36 22
63 37 19
63 38 22
63 39 16
63 40 24
63 41 19
63 42 24
63 43 17
63 44 23
63 45 28
63 46 9
63 47 21
63 48 10
63 49 28
63 50 24
63 51 48
63 52 44
63 53 13
63 54 11
63 55 37
63 56 50
63 57 42
63 58 25
63 59 22
63 60 11
63 61 46
63 62 38
64 0 29
64 1 21
64 2 15
64 3 48
64 4 12
64 5 31
64 6 17
64 7 36
64 8 42
64 9 26
64 10 43
64 11 3
64 12 7
64 13 45
64 14 20
64 15 27
64 16 9
64 17 12
64 18 11
64 19 36
64 20 37
64 21 49
64 22 8
64 23 50
64 24 29
64 25 28
64 26 11
64 27 44
64 28 31
64 29 11
64 30 35
64 31 28
64 32 36
64 33 39
64 34 15
64 35 34
64 36 34
64 37 17
64 38 13
64 39 43
64 40 42
64 41 25
64 42 20
64 43 43
64 44 5
64 45 11
64 46 2
64 47 42
64 48 23
64 49 46
64 50 47
64 51 2
64 52 19
64 53 6
64 54 25
64 55 39
64 56 22
64 57 35
64 58 12
64 59 21
64 60 8
64 61 45
64 62 6
64 63 6
